1630
43 10 58 61 50 5 39 98 53 99 36 8 49 94 41 52 54 51 6 33 3 86 14 59 12 74 55 97 82 26 30 34 42 79 2 72 57 23 29 9 11 87 85 18 96 65 81 17 48 40 28 37 56 25 19 4 47 27 90 16 73 88 83 38 92 64 7 75 63 66 21 70 44 93 20 69 31 91 78 89 80 77 22 45 24 68 60 95 84 71 15 62 1 67 76 35 13 46 32 
